(set-logic HORN)
(declare-fun state (Int (Array Int Int) (Array Int Int) (Array Int Int) (Array Int Int) Int Int (Array Int Int) (Array Int Int) Int Int Int Int Int Int Int Int Int Int Int Int Int Int Int Int Int Int Int Int Int Int Int Int Int Int Int Int Int Int Int Int Int Int Int Int Int Int Int Int Int Int Int Int Int Int Int Int Int Bool Bool Bool Bool Bool Bool (Array Int Int)) Bool)
(assert (forall ((|A_53| Int) (|B_53| (Array Int Int)) (|C_53| (Array Int Int)) (|D_53| (Array Int Int)) (|E_53| (Array Int Int)) (|F_53| Int) (|G_53| Int) (|H_53| (Array Int Int)) (|I_53| (Array Int Int)) (|J_53| Int) (|K_53| Int) (|L_53| Int) (|M_53| Int) (|N_53| Int) (|O_53| Int) (|P_53| Int) (|Q_53| Int) (|R_53| Int) (|S_53| Int) (|T_53| Int) (|U_53| Int) (|V_53| Int) (|W_53| Int) (|X_53| Int) (|Y_53| Int) (|Z_53| Int) (|A1_53| Int) (|B1_53| Int) (|C1_53| Int) (|D1_53| Int) (|E1_53| Int) (|F1_53| Int) (|G1_53| Int) (|H1_53| Int) (|I1_53| Int) (|J1_53| Int) (|K1_53| Int) (|L1_53| Int) (|M1_53| Int) (|N1_53| Int) (|O1_53| Int) (|P1_53| Int) (|Q1_53| Int) (|R1_53| Int) (|S1_53| Int) (|T1_53| Int) (|U1_53| Int) (|V1_53| Int) (|W1_53| Int) (|X1_53| Int) (|Y1_53| Int) (|Z1_53| Int) (|A2_53| Int) (|B2_53| Int) (|C2_53| Int) (|D2_53| Int) (|E2_53| Int) (|F2_53| Int) (|H2_31| Bool) (|.loc.6| Bool) (|.loc.7| Bool) (|.loc.8| Bool) (|.loc.9| Bool) (|.loc.10| Bool) (|H2_0| (Array Int Int)) (|.x.3077| Int) (|.x.3075| (Array Int Int)) (|.x.3073| Int) (|.x.3071| (Array Int Int)) (|.x.3067| Int) (|.x.3069| (Array Int Int)) (|.x.3068| (Array Int Int)) (|G2_53| Bool) (|.x.3080| Int) (|.x.3081| Int) (|.x.3083| Int) (|.x.3087| Int) (|.x.3088| Int) (|.x.3093| Int) (|.x.3094| Int) (|.x.3095| Int) (|.x.3096| Int) (|.x.3097| Int) (|.x.3101| Int) (|.x.3103| Int) (|.x.3106| Int) (|.x.3110| Int) (|.x.3112| Int) (|.x.3115| Int) (|.x.3118| Int) (|.x.3119| Int) (|.x.3120| Int) (|.x.3121| Int) (|.loc.14| Bool) (|.loc.12| Bool) (|.loc.13| Bool) (|.x.3079| Int) (|.x.3084| Int) (|.x.3086| Int) (|.x.3122| Int) (|.loc.11| Bool) (|.x.3113| Int) (|.x.3107| Int) (|.x.3098| Int) (|.x.3070| (Array Int Int)) (|.x.3108| Int) (|.x.3109| Int) (|.loc.15| Bool) (|.x.3114| Int) (|.x.3100| Int) (|.x.3111| Int) (|.x.3099| Int) (|.x.3105| Int) (|.x.3104| Int) (|.x.3117| Int) (|.x.3102| Int) (|.x.3116| Int) (|.x.3091| Int) (|.x.3123| Int) (|.x.3092| Int) (|.x.3124| Int) (|.x.3089| Int) (|.x.3090| Int) (|.x.3085| Int) (|.x.3078| Int) (|.x.3082| Int) (|.x.3076| Int) (|.x.3072| Int) (|.x.3074| (Array Int Int)) (|.xtv.1| (Array Int Int))) (=> (and (and (and (and (and .loc.6 (not .loc.7)) (not .loc.8)) (not .loc.9)) (not .loc.10)) (and (and (and (and (and (= D_53 E_53) (not H2_31)) (= J_53 K_53)) (= F_53 G_53)) (= H_53 I_53)) (= B_53 C_53))) (state |A_53| |B_53| |C_53| |D_53| |E_53| |F_53| |G_53| |H_53| |I_53| |J_53| |K_53| |L_53| |M_53| |N_53| |O_53| |P_53| |Q_53| |R_53| |S_53| |T_53| |U_53| |V_53| |W_53| |X_53| |Y_53| |Z_53| |A1_53| |B1_53| |C1_53| |D1_53| |E1_53| |F1_53| |G1_53| |H1_53| |I1_53| |J1_53| |K1_53| |L1_53| |M1_53| |N1_53| |O1_53| |P1_53| |Q1_53| |R1_53| |S1_53| |T1_53| |U1_53| |V1_53| |W1_53| |X1_53| |Y1_53| |Z1_53| |A2_53| |B2_53| |C2_53| |D2_53| |E2_53| |F2_53| |H2_31| |.loc.6| |.loc.7| |.loc.8| |.loc.9| |.loc.10| |H2_0|))))
(assert (forall ((|A_53| Int) (|B_53| (Array Int Int)) (|C_53| (Array Int Int)) (|D_53| (Array Int Int)) (|E_53| (Array Int Int)) (|F_53| Int) (|G_53| Int) (|H_53| (Array Int Int)) (|I_53| (Array Int Int)) (|J_53| Int) (|K_53| Int) (|L_53| Int) (|M_53| Int) (|N_53| Int) (|O_53| Int) (|P_53| Int) (|Q_53| Int) (|R_53| Int) (|S_53| Int) (|T_53| Int) (|U_53| Int) (|V_53| Int) (|W_53| Int) (|X_53| Int) (|Y_53| Int) (|Z_53| Int) (|A1_53| Int) (|B1_53| Int) (|C1_53| Int) (|D1_53| Int) (|E1_53| Int) (|F1_53| Int) (|G1_53| Int) (|H1_53| Int) (|I1_53| Int) (|J1_53| Int) (|K1_53| Int) (|L1_53| Int) (|M1_53| Int) (|N1_53| Int) (|O1_53| Int) (|P1_53| Int) (|Q1_53| Int) (|R1_53| Int) (|S1_53| Int) (|T1_53| Int) (|U1_53| Int) (|V1_53| Int) (|W1_53| Int) (|X1_53| Int) (|Y1_53| Int) (|Z1_53| Int) (|A2_53| Int) (|B2_53| Int) (|C2_53| Int) (|D2_53| Int) (|E2_53| Int) (|F2_53| Int) (|H2_31| Bool) (|.loc.6| Bool) (|.loc.7| Bool) (|.loc.8| Bool) (|.loc.9| Bool) (|.loc.10| Bool) (|H2_0| (Array Int Int)) (|.x.3077| Int) (|.x.3075| (Array Int Int)) (|.x.3073| Int) (|.x.3071| (Array Int Int)) (|.x.3067| Int) (|.x.3069| (Array Int Int)) (|.x.3068| (Array Int Int)) (|G2_53| Bool) (|.x.3080| Int) (|.x.3081| Int) (|.x.3083| Int) (|.x.3087| Int) (|.x.3088| Int) (|.x.3093| Int) (|.x.3094| Int) (|.x.3095| Int) (|.x.3096| Int) (|.x.3097| Int) (|.x.3101| Int) (|.x.3103| Int) (|.x.3106| Int) (|.x.3110| Int) (|.x.3112| Int) (|.x.3115| Int) (|.x.3118| Int) (|.x.3119| Int) (|.x.3120| Int) (|.x.3121| Int) (|.loc.14| Bool) (|.loc.12| Bool) (|.loc.13| Bool) (|.x.3079| Int) (|.x.3084| Int) (|.x.3086| Int) (|.x.3122| Int) (|.loc.11| Bool) (|.x.3113| Int) (|.x.3107| Int) (|.x.3098| Int) (|.x.3070| (Array Int Int)) (|.x.3108| Int) (|.x.3109| Int) (|.loc.15| Bool) (|.x.3114| Int) (|.x.3100| Int) (|.x.3111| Int) (|.x.3099| Int) (|.x.3105| Int) (|.x.3104| Int) (|.x.3117| Int) (|.x.3102| Int) (|.x.3116| Int) (|.x.3091| Int) (|.x.3123| Int) (|.x.3092| Int) (|.x.3124| Int) (|.x.3089| Int) (|.x.3090| Int) (|.x.3085| Int) (|.x.3078| Int) (|.x.3082| Int) (|.x.3076| Int) (|.x.3072| Int) (|.x.3074| (Array Int Int)) (|.xtv.1| (Array Int Int))) (=> (and (state |A_53| |B_53| |C_53| |D_53| |E_53| |F_53| |G_53| |H_53| |I_53| |J_53| |K_53| |L_53| |M_53| |N_53| |O_53| |P_53| |Q_53| |R_53| |S_53| |T_53| |U_53| |V_53| |W_53| |X_53| |Y_53| |Z_53| |A1_53| |B1_53| |C1_53| |D1_53| |E1_53| |F1_53| |G1_53| |H1_53| |I1_53| |J1_53| |K1_53| |L1_53| |M1_53| |N1_53| |O1_53| |P1_53| |Q1_53| |R1_53| |S1_53| |T1_53| |U1_53| |V1_53| |W1_53| |X1_53| |Y1_53| |Z1_53| |A2_53| |B2_53| |C2_53| |D2_53| |E2_53| |F2_53| |H2_31| |.loc.6| |.loc.7| |.loc.8| |.loc.9| |.loc.10| |H2_0|) (let ((.def_75 (not .loc.7))) (let ((.def_77 (not .loc.8))) (let ((.def_79 (not .loc.9))) (let ((.def_81 (not .loc.10))) (let ((.def_113 (= B_53 .x.3068))) (let ((.def_117 (= N_53 .x.3080))) (let ((.def_120 (= O_53 .x.3081))) (let ((.def_123 (= Q_53 .x.3083))) (let ((.def_126 (= U_53 .x.3087))) (let ((.def_129 (= V_53 .x.3088))) (let ((.def_132 (= A1_53 .x.3093))) (let ((.def_135 (= B1_53 .x.3094))) (let ((.def_138 (= C1_53 .x.3095))) (let ((.def_141 (= D1_53 .x.3096))) (let ((.def_144 (= E1_53 .x.3097))) (let ((.def_147 (= I1_53 .x.3101))) (let ((.def_150 (= K1_53 .x.3103))) (let ((.def_153 (= N1_53 .x.3106))) (let ((.def_156 (= R1_53 .x.3110))) (let ((.def_159 (= T1_53 .x.3112))) (let ((.def_162 (= W1_53 .x.3115))) (let ((.def_165 (= Z1_53 .x.3118))) (let ((.def_168 (= A2_53 .x.3119))) (let ((.def_171 (= B2_53 .x.3120))) (let ((.def_174 (= C2_53 .x.3121))) (let ((.def_176 (not .loc.6))) (let ((.def_195 (= H2_31 G2_53))) (let ((.def_202 (not .loc.12))) (let ((.def_205 (not .loc.13))) (let ((.def_208 (= R_53 0))) (let ((.def_212 (and .def_123 (and .def_120 (and .def_113 .def_117))))) (let ((.def_229 (and .def_174 (and .def_171 (and .def_168 (and .def_165 (and .def_162 (and .def_159 (and .def_156 (and .def_153 (and .def_150 (and .def_147 (and .def_144 (and .def_141 (and .def_138 (and .def_135 (and .def_132 (and .def_129 (and .def_126 .def_212))))))))))))))))))) (let ((.def_234 (not .loc.14))) (let ((.def_240 (= M_53 .x.3079))) (let ((.def_242 (= R_53 .x.3084))) (let ((.def_245 (= T_53 .x.3086))) (let ((.def_248 (= D2_53 .x.3122))) (let ((.def_251 (not .loc.11))) (let ((.def_257 (select D_53 T1_53))) (let ((.def_262 (select D_53 A1_53))) (let ((.def_267 (<= 100000 U1_53))) (let ((.def_288 (= U1_53 .x.3113))) (let ((.def_290 (= O1_53 .x.3107))) (let ((.def_339 (and .def_129 (and .def_126 (and .def_245 (and .def_242 (and .def_123 (and .def_120 (and .def_117 (and .def_113 .def_240)))))))))) (let ((.def_344 (and .def_144 (and .def_141 (and .def_138 (and .def_135 (and .def_132 .def_339))))))) (let ((.def_350 (and .def_159 (and .def_156 (and .def_290 (and .def_153 (and .def_150 (and .def_147 .def_344)))))))) (let ((.def_368 (and H2_31 .def_113))) (let ((.def_394 (and .def_248 (and .def_174 (and .def_171 (and .def_168 (and .def_165 (and .def_162 (and .def_288 (and .def_159 (and .def_156 (and .def_290 (and .def_153 (and .def_150 (and .def_147 (and .def_144 (and .def_141 (and .def_138 (and .def_135 (and .def_132 (and .def_129 (and .def_126 (and .def_245 (and .def_242 (and .def_123 (and .def_120 (and .def_117 (and .def_240 .def_368)))))))))))))))))))))))))))) (let ((.def_412 (and .def_248 (and .def_174 (and .def_171 (and .def_168 (and .def_165 (and .def_162 (and .def_288 .def_350))))))))) (let ((.def_436 (and .def_176 (and .loc.10 (and .loc.7 .def_412))))) (let ((.def_443 (<= 100000 Q1_53))) (let ((.def_444 (or H2_31 .def_443))) (let ((.def_448 (= F1_53 .x.3098))) (let ((.def_450 (= D_53 .x.3070))) (let ((.def_453 (= P1_53 .x.3108))) (let ((.def_456 (= Q1_53 .x.3109))) (let ((.def_459 (* 4 Q1_53))) (let ((.def_467 (not .def_443))) (let ((.def_479 (or G2_53 (= (+ Q1_53 (* (- 1) .x.3109)) (- 1))))) (let ((.def_495 (and .def_129 (and .def_126 (and .def_245 (and .def_242 (and .def_123 (and .def_120 (and .def_117 (and .def_240 (and .def_113 .def_450))))))))))) (let ((.def_501 (and .def_448 (and .def_144 (and .def_141 (and .def_138 (and .def_135 (and .def_132 .def_495)))))))) (let ((.def_506 (and .def_453 (and .def_290 (and .def_153 (and .def_150 (and .def_147 .def_501))))))) (let ((.def_516 (and .def_248 (and .def_174 (and .def_171 (and .def_168 (and .def_165 (and .def_162 (and .def_288 (and .def_159 (and .def_156 (and .def_456 .def_506)))))))))))) (let ((.def_526 (not .loc.15))) (let ((.def_538 (and .def_129 (and .def_126 (and .def_245 (and .def_242 (and .def_123 (and .def_120 (and .def_117 (and .def_240 (and .def_368 .def_450))))))))))) (let ((.def_544 (and .def_448 (and .def_144 (and .def_141 (and .def_138 (and .def_135 (and .def_132 .def_538)))))))) (let ((.def_559 (and .def_248 (and .def_174 (and .def_171 (and .def_168 (and .def_165 (and .def_162 (and .def_288 (and .def_159 (and .def_156 (and .def_456 (and .def_453 (and .def_290 (and .def_153 (and .def_150 (and .def_147 .def_544))))))))))))))))) (let ((.def_591 (or H2_31 (= .x.3109 0)))) (let ((.def_618 (= V1_53 .x.3114))) (let ((.def_620 (= H1_53 .x.3100))) (let ((.def_624 (select D_53 I1_53))) (let ((.def_631 (and .def_344 .def_448))) (let ((.def_665 (and .def_453 (and .def_290 (and .def_153 (and .def_150 (and .def_147 (and .def_501 .def_620)))))))) (let ((.def_743 (= S1_53 .x.3111))) (let ((.def_745 (= G1_53 .x.3099))) (let ((.def_749 (select D_53 V_53))) (let ((.def_789 (and .def_147 (and .def_620 (and .def_501 .def_745))))) (let ((.def_790 (and .def_150 .def_789))) (let ((.def_793 (and .def_453 (and .def_290 (and .def_153 .def_790))))) (let ((.def_820 (and .def_147 (and .def_620 (and .def_544 .def_745))))) (let ((.def_821 (and .def_150 .def_820))) (let ((.def_875 (= M1_53 .x.3105))) (let ((.def_877 (= L1_53 .x.3104))) (let ((.def_881 (select D_53 R1_53))) (let ((.def_890 (and .def_147 (and .def_620 (and .def_631 .def_745))))) (let ((.def_891 (and .def_150 .def_890))) (let ((.def_924 (and .def_453 (and .def_290 (and .def_153 (and .def_875 (and .def_790 .def_877))))))) (let ((.def_1004 (= Y1_53 .x.3117))) (let ((.def_1006 (= J1_53 .x.3102))) (let ((.def_1010 (select D_53 E1_53))) (let ((.def_1053 (and .def_453 (and .def_290 (and .def_153 (and .def_875 (and .def_877 (and .def_150 (and .def_789 .def_1006))))))))) (let ((.def_1138 (= X1_53 .x.3116))) (let ((.def_1140 (= Y_53 .x.3091))) (let ((.def_1144 (select D_53 O_53))) (let ((.def_1184 (and .def_495 .def_1140))) (let ((.def_1200 (and .def_453 (and .def_290 (and .def_153 (and .def_875 (and .def_877 (and .def_150 (and .def_1006 (and .def_147 (and .def_620 (and .def_745 (and .def_448 (and .def_144 (and .def_141 (and .def_138 (and .def_135 (and .def_132 .def_1184)))))))))))))))))) (let ((.def_1227 (and .def_538 .def_1140))) (let ((.def_1298 (= E2_53 .x.3123))) (let ((.def_1300 (= Z_53 .x.3092))) (let ((.def_1304 (select D_53 D1_53))) (let ((.def_1311 (and .def_339 .def_1140))) (let ((.def_1371 (and .def_453 (and .def_290 (and .def_153 (and .def_875 (and .def_877 (and .def_150 (and .def_1006 (and .def_147 (and .def_620 (and .def_745 (and .def_448 (and .def_144 (and .def_141 (and .def_138 (and .def_135 (and .def_132 (and .def_1184 .def_1300))))))))))))))))))) (let ((.def_1472 (= F2_53 .x.3124))) (let ((.def_1474 (= W_53 .x.3089))) (let ((.def_1548 (and .def_453 (and .def_290 (and .def_153 (and .def_875 (and .def_877 (and .def_150 (and .def_1006 (and .def_147 (and .def_620 (and .def_745 (and .def_448 (and .def_144 (and .def_141 (and .def_138 (and .def_135 (and .def_132 (and .def_1300 (and .def_1140 (and .def_495 .def_1474))))))))))))))))))))) (let ((.def_1624 (<= 100000 P_53))) (let ((.def_1672 (store D_53 T1_53 (store .def_257 (+ (* 4 P_53) W1_53) L_53)))) (let ((.def_1834 (store H2_0 .x.3112 1))) (let ((.def_1835 (store .def_1834 .x.3096 1))) (let ((.def_1839 (store .def_1835 .x.3081 1))) (let ((.def_1843 (store .def_1839 .x.3097 1))) (let ((.def_1844 (store .def_1843 .x.3110 1))) (let ((.def_1848 (store .def_1844 .x.3088 1))) (let ((.def_1852 (store .def_1848 .x.3101 1))) (let ((.def_1865 (store .def_1852 .x.3119 1))) (and (and (= K_53 .x.3077) (and (= I_53 .x.3075) (and (= G_53 .x.3073) (and (= E_53 .x.3071) (and (= A_53 .x.3067) (= C_53 .x.3069)))))) (or (and (or (and (or (or (or (or (and (or (or (or (or (and (or (or (or (or (and (or (or (or (or (and (or (or (or (or (and (or (or (or (or (and (or (or (or (and .def_79 (or (and (or (or (or (or (or (and (or (and (or (or (or (or (or (or (and (or (and (or (and (or (and (and (and (and (and (and (and (and (and (and (and (and (and (and (and (and (and (and (and (and (and (and .def_113 G2_53) .def_117) .def_120) .def_123) .def_126) .def_129) .def_132) .def_135) .def_138) .def_141) .def_144) .def_147) .def_150) .def_153) .def_156) .def_159) .def_162) .def_165) .def_168) .def_171) .def_174) .def_176) (and (or H2_31 (and (= .x.3120 0) (= .x.3068 (store (store (store (store (store (store (store (store (store B_53 T1_53 0) D1_53 0) O_53 0) E1_53 0) R1_53 0) V_53 0) I1_53 0) A2_53 0) A1_53 0)))) (and (and .loc.6 (or G2_53 (= .x.3120 .x.3121))) .def_195))) (and (and (and .loc.7 .loc.14) .def_202) .def_205)) (and (or H2_31 .def_208) (and .def_75 (and (and .def_195 (and .loc.13 (and .loc.12 (and .loc.6 .def_229)))) .def_234)))) (and (and (and (and .def_240 .def_242) .def_245) .def_248) .def_251)) (and (or H2_31 (and (= .x.3086 (select .def_257 (+ (* 4 U1_53) W1_53))) (and (= .x.3079 (select .def_262 (+ Q_53 (* 4 U1_53)))) (and (= .x.3084 .x.3122) (and (not .def_267) (= .x.3122 (ite (= .x.3079 .x.3086) 1 0))))))) (and .def_75 (and .def_234 (and .def_195 (and .def_202 (and .loc.13 (and .loc.11 (and .def_176 .def_229))))))))) (and .loc.10 (and .loc.8 (and .def_288 .def_290)))) (and (or G2_53 (= (+ U1_53 (* (- 1) .x.3113)) (- 1))) (and .def_77 (and .def_81 (and .def_75 (and .def_234 (and .def_195 (and .def_202 (and .def_251 (and .loc.13 (and .def_176 (and .def_248 (and .def_174 (and .def_171 (and .def_168 (and .def_165 (and .def_162 (and .def_159 (and .def_156 (and .def_153 (and .def_150 (and .def_147 (and .def_144 (and .def_141 (and .def_138 (and .def_135 (and .def_132 (and .def_129 (and .def_126 (and .def_212 .def_242)))))))))))))))))))))))))))))) (and (or H2_31 (= .x.3113 0)) (and .def_77 (and .def_234 (and .def_195 (and .def_202 (and .def_251 (and .loc.13 (and .loc.10 (and .loc.7 (and .loc.6 (and .def_248 (and .def_174 (and .def_171 (and .def_168 (and .def_165 (and .def_162 .def_350))))))))))))))))) (and .def_75 (and .def_234 (and .def_195 (and .loc.13 (and .loc.12 (and .loc.11 (and .def_176 (and .loc.10 (and .loc.8 .def_394)))))))))) (and (or H2_31 .def_267) (and .def_75 (and .def_234 (and .def_195 (and .loc.13 (and .loc.12 (and .loc.11 (and .def_176 (and .loc.10 (and .loc.8 .def_412))))))))))) (and .def_77 (and .def_234 (and .def_195 (and .def_205 (and .loc.12 (and .loc.11 (and .def_176 (and .loc.10 (and .loc.7 .def_394)))))))))) (and (and .def_77 (and .def_234 (and .def_195 (and .def_205 (and .loc.12 (and .loc.11 .def_436)))))) .def_444)) (and (and (and .def_448 .def_450) .def_453) .def_456)) (and (or H2_31 (and (= .x.3070 (store D_53 A1_53 (store .def_262 (+ Q_53 .def_459) (select (select D_53 A2_53) (+ B1_53 .def_459))))) .def_467)) (and (and .def_77 (and .def_234 (and .def_195 (and .def_205 (and .def_251 (and .loc.12 .def_436)))))) .def_479))) .loc.15) (and (or H2_31 (not .def_208)) (and (and .def_75 (and .def_234 (and .def_195 (and .def_205 (and .def_202 (and .def_251 (and .loc.10 (and .loc.8 (and .loc.6 .def_516))))))))) .def_526))) (and .def_526 (and .def_234 (and .def_195 (and .def_205 (and .def_202 (and .def_251 (and .def_176 (and .loc.10 (and .loc.8 (and .loc.7 .def_559))))))))))) (and (and .def_77 (and .def_75 (and .def_234 (and .def_195 (and .def_205 (and .def_251 (and .loc.15 (and .loc.12 (and .loc.10 (and .loc.6 (and .def_248 (and .def_174 (and .def_171 (and .def_168 (and .def_165 (and .def_162 (and .def_288 (and .def_159 (and .def_156 .def_506))))))))))))))))))) .def_591)) (and .def_77 (and .def_75 (and .def_234 (and .def_195 (and .def_205 (and .def_202 (and .loc.15 (and .loc.11 (and .def_176 (and .loc.10 .def_559))))))))))) (and .def_444 (and .def_77 (and .def_75 (and .def_234 (and .def_195 (and .def_205 (and .def_202 (and .loc.15 (and .loc.11 (and .def_176 (and .loc.10 .def_516)))))))))))) (and .def_618 .def_620)) (and (or H2_31 (and .def_467 (= .x.3070 (store D_53 A1_53 (store .def_262 (+ Q_53 .def_459) (select .def_624 (+ K1_53 .def_459))))))) (and .def_479 (and .def_77 (and .def_75 (and .def_234 (and .def_195 (and .def_205 (and .def_202 (and .def_251 (and .loc.15 (and .def_176 (and .loc.10 (and .def_248 (and .def_174 (and .def_171 (and .def_168 (and .def_165 (and .def_162 (and .def_288 (and .def_159 (and .def_156 (and .def_453 (and .def_290 (and .def_153 (and .def_150 (and .def_147 .def_631)))))))))))))))))))))))))))) (and .def_591 (and .def_81 (and .def_234 (and .def_195 (and .def_205 (and .def_202 (and .def_251 (and .loc.15 (and .loc.9 (and .loc.8 (and .loc.7 (and .loc.6 (and .def_248 (and .def_174 (and .def_171 (and .def_168 (and .def_165 (and .def_162 (and .def_618 (and .def_288 (and .def_159 (and .def_156 .def_665))))))))))))))))))))))) (and .def_526 (and .def_81 (and .def_195 (and .loc.14 (and .loc.13 (and .loc.12 (and .loc.11 (and .def_176 (and .loc.9 (and .loc.8 (and .loc.7 (and .def_248 (and .def_174 (and .def_171 (and .def_168 (and .def_165 (and .def_162 (and .def_618 (and .def_288 (and .def_159 (and .def_156 (and .def_456 (and .def_453 (and .def_290 (and .def_153 (and .def_150 (and .def_147 (and .def_544 .def_620))))))))))))))))))))))))))))) (and .def_526 (and .def_444 (and .def_81 (and .def_195 (and .loc.14 (and .loc.13 (and .loc.12 (and .loc.11 (and .def_176 (and .loc.9 (and .loc.8 (and .loc.7 (and .def_248 (and .def_174 (and .def_171 (and .def_168 (and .def_165 (and .def_162 (and .def_618 (and .def_288 (and .def_159 (and .def_156 (and .def_456 .def_665)))))))))))))))))))))))) (and .def_743 .def_745)) (and (or H2_31 (and .def_467 (= .x.3070 (store D_53 I1_53 (store .def_624 (+ K1_53 .def_459) (select .def_749 (+ .def_459 Z1_53))))))) (and .def_526 (and .def_479 (and .def_81 (and .def_195 (and .def_251 (and .loc.14 (and .loc.13 (and .loc.12 (and .def_176 (and .loc.9 (and .loc.8 (and .loc.7 (and .def_248 (and .def_174 (and .def_171 (and .def_168 (and .def_165 (and .def_162 (and .def_618 (and .def_288 (and .def_159 (and .def_156 (and .def_453 (and .def_290 (and .def_153 (and .def_150 (and .def_147 (and .def_620 .def_631)))))))))))))))))))))))))))))) (and .def_591 (and .def_526 (and .def_81 (and .def_75 (and .def_195 (and .def_251 (and .loc.14 (and .loc.13 (and .loc.12 (and .loc.9 (and .loc.8 (and .loc.6 (and .def_248 (and .def_174 (and .def_171 (and .def_168 (and .def_165 (and .def_162 (and .def_618 (and .def_288 (and .def_159 (and .def_743 (and .def_156 .def_793)))))))))))))))))))))))) (and .def_526 (and .def_81 (and .def_75 (and .def_195 (and .def_202 (and .loc.14 (and .loc.13 (and .loc.11 (and .def_176 (and .loc.9 (and .loc.8 (and .def_248 (and .def_174 (and .def_171 (and .def_168 (and .def_165 (and .def_162 (and .def_618 (and .def_288 (and .def_159 (and .def_743 (and .def_156 (and .def_456 (and .def_453 (and .def_290 (and .def_153 .def_821))))))))))))))))))))))))))) (and .def_526 (and .def_444 (and .def_81 (and .def_75 (and .def_195 (and .def_202 (and .loc.14 (and .loc.13 (and .loc.11 (and .def_176 (and .loc.9 (and .loc.8 (and .def_248 (and .def_174 (and .def_171 (and .def_168 (and .def_165 (and .def_162 (and .def_618 (and .def_288 (and .def_159 (and .def_743 (and .def_156 (and .def_456 .def_793))))))))))))))))))))))))) (and .def_875 .def_877)) (and (or H2_31 (and .def_467 (= .x.3070 (store D_53 V_53 (store .def_749 (+ .def_459 Z1_53) (select .def_881 (+ U_53 .def_459))))))) (and .def_526 (and .def_479 (and .def_81 (and .def_75 (and .def_195 (and .def_202 (and .def_251 (and .loc.14 (and .loc.13 (and .def_176 (and .loc.9 (and .loc.8 (and .def_248 (and .def_174 (and .def_171 (and .def_168 (and .def_165 (and .def_162 (and .def_618 (and .def_288 (and .def_159 (and .def_743 (and .def_156 (and .def_453 (and .def_290 (and .def_153 .def_891)))))))))))))))))))))))))))) (and .def_591 (and .def_526 (and .def_77 (and .def_81 (and .def_195 (and .def_202 (and .def_251 (and .loc.14 (and .loc.13 (and .loc.9 (and .loc.7 (and .loc.6 (and .def_248 (and .def_174 (and .def_171 (and .def_168 (and .def_165 (and .def_162 (and .def_618 (and .def_288 (and .def_159 (and .def_743 (and .def_156 .def_924)))))))))))))))))))))))) (and .def_526 (and .def_77 (and .def_81 (and .def_195 (and .def_205 (and .loc.14 (and .loc.12 (and .loc.11 (and .def_176 (and .loc.9 (and .loc.7 (and .def_248 (and .def_174 (and .def_171 (and .def_168 (and .def_165 (and .def_162 (and .def_618 (and .def_288 (and .def_159 (and .def_743 (and .def_156 (and .def_456 (and .def_453 (and .def_290 (and .def_153 (and .def_875 (and .def_821 .def_877))))))))))))))))))))))))))))) (and .def_526 (and .def_444 (and .def_77 (and .def_81 (and .def_195 (and .def_205 (and .loc.14 (and .loc.12 (and .loc.11 (and .def_176 (and .loc.9 (and .loc.7 (and .def_248 (and .def_174 (and .def_171 (and .def_168 (and .def_165 (and .def_162 (and .def_618 (and .def_288 (and .def_159 (and .def_743 (and .def_156 (and .def_456 .def_924))))))))))))))))))))))))) (and .def_1004 .def_1006)) (and (or H2_31 (and .def_467 (= .x.3070 (store D_53 R1_53 (store .def_881 (+ U_53 .def_459) (select .def_1010 (+ N1_53 .def_459))))))) (and .def_526 (and .def_479 (and .def_77 (and .def_81 (and .def_195 (and .def_205 (and .def_251 (and .loc.14 (and .loc.12 (and .def_176 (and .loc.9 (and .loc.7 (and .def_248 (and .def_174 (and .def_171 (and .def_168 (and .def_165 (and .def_162 (and .def_618 (and .def_288 (and .def_159 (and .def_743 (and .def_156 (and .def_453 (and .def_290 (and .def_153 (and .def_875 (and .def_877 .def_891)))))))))))))))))))))))))))))) (and .def_591 (and .def_526 (and .def_77 (and .def_81 (and .def_75 (and .def_195 (and .def_205 (and .def_251 (and .loc.14 (and .loc.12 (and .loc.9 (and .loc.6 (and .def_248 (and .def_174 (and .def_171 (and .def_168 (and .def_165 (and .def_1004 (and .def_162 (and .def_618 (and .def_288 (and .def_159 (and .def_743 (and .def_156 .def_1053))))))))))))))))))))))))) (and .def_526 (and .def_77 (and .def_81 (and .def_75 (and .def_195 (and .def_205 (and .def_202 (and .loc.14 (and .loc.11 (and .def_176 (and .loc.9 (and .def_248 (and .def_174 (and .def_171 (and .def_168 (and .def_165 (and .def_1004 (and .def_162 (and .def_618 (and .def_288 (and .def_159 (and .def_743 (and .def_156 (and .def_456 (and .def_453 (and .def_290 (and .def_153 (and .def_875 (and .def_877 (and .def_150 (and .def_820 .def_1006)))))))))))))))))))))))))))))))) (and .def_526 (and .def_444 (and .def_77 (and .def_81 (and .def_75 (and .def_195 (and .def_205 (and .def_202 (and .loc.14 (and .loc.11 (and .def_176 (and .loc.9 (and .def_248 (and .def_174 (and .def_171 (and .def_168 (and .def_165 (and .def_1004 (and .def_162 (and .def_618 (and .def_288 (and .def_159 (and .def_743 (and .def_156 (and .def_456 .def_1053)))))))))))))))))))))))))) (and .def_1138 .def_1140)) (and (or H2_31 (and .def_467 (= .x.3070 (store D_53 E1_53 (store .def_1010 (+ N1_53 .def_459) (select .def_1144 (+ C1_53 .def_459))))))) (and .def_526 (and .def_479 (and .def_77 (and .def_81 (and .def_75 (and .def_195 (and .def_205 (and .def_202 (and .def_251 (and .loc.14 (and .def_176 (and .loc.9 (and .def_248 (and .def_174 (and .def_171 (and .def_168 (and .def_165 (and .def_1004 (and .def_162 (and .def_618 (and .def_288 (and .def_159 (and .def_743 (and .def_156 (and .def_453 (and .def_290 (and .def_153 (and .def_875 (and .def_877 (and .def_150 (and .def_890 .def_1006))))))))))))))))))))))))))))))))) (and .def_591 (and .def_526 (and .def_81 (and .def_195 (and .def_205 (and .def_202 (and .def_251 (and .loc.14 (and .def_79 (and .loc.8 (and .loc.7 (and .loc.6 (and .def_248 (and .def_174 (and .def_171 (and .def_168 (and .def_165 (and .def_1004 (and .def_1138 (and .def_162 (and .def_618 (and .def_288 (and .def_159 (and .def_743 (and .def_156 .def_1200)))))))))))))))))))))))))) (and .def_526 (and .def_81 (and .def_234 (and .def_195 (and .loc.13 (and .loc.12 (and .loc.11 (and .def_79 (and .def_176 (and .loc.8 (and .loc.7 (and .def_248 (and .def_174 (and .def_171 (and .def_168 (and .def_165 (and .def_1004 (and .def_1138 (and .def_162 (and .def_618 (and .def_288 (and .def_159 (and .def_743 (and .def_156 (and .def_456 (and .def_453 (and .def_290 (and .def_153 (and .def_875 (and .def_877 (and .def_150 (and .def_1006 (and .def_147 (and .def_620 (and .def_745 (and .def_448 (and .def_144 (and .def_141 (and .def_138 (and .def_135 (and .def_132 .def_1227)))))))))))))))))))))))))))))))))))))))))) (and .def_526 (and .def_444 (and .def_81 (and .def_234 (and .def_195 (and .loc.13 (and .loc.12 (and .loc.11 (and .def_79 (and .def_176 (and .loc.8 (and .loc.7 (and .def_248 (and .def_174 (and .def_171 (and .def_168 (and .def_165 (and .def_1004 (and .def_1138 (and .def_162 (and .def_618 (and .def_288 (and .def_159 (and .def_743 (and .def_156 (and .def_456 .def_1200))))))))))))))))))))))))))) (and .def_1298 .def_1300)) (and (or H2_31 (and .def_467 (= .x.3070 (store D_53 O_53 (store .def_1144 (+ C1_53 .def_459) (select .def_1304 (+ N_53 .def_459))))))) (and .def_526 (and .def_479 (and .def_81 (and .def_234 (and .def_195 (and .def_251 (and .loc.13 (and .loc.12 (and .def_79 (and .def_176 (and .loc.8 (and .loc.7 (and .def_248 (and .def_174 (and .def_171 (and .def_168 (and .def_165 (and .def_1004 (and .def_1138 (and .def_162 (and .def_618 (and .def_288 (and .def_159 (and .def_743 (and .def_156 (and .def_453 (and .def_290 (and .def_153 (and .def_875 (and .def_877 (and .def_150 (and .def_1006 (and .def_147 (and .def_620 (and .def_745 (and .def_448 (and .def_144 (and .def_141 (and .def_138 (and .def_135 (and .def_132 .def_1311))))))))))))))))))))))))))))))))))))))))))) (and .def_591 (and .def_526 (and .def_81 (and .def_75 (and .def_234 (and .def_195 (and .def_251 (and .loc.13 (and .loc.12 (and .def_79 (and .loc.8 (and .loc.6 (and .def_1298 (and .def_248 (and .def_174 (and .def_171 (and .def_168 (and .def_165 (and .def_1004 (and .def_1138 (and .def_162 (and .def_618 (and .def_288 (and .def_159 (and .def_743 (and .def_156 .def_1371))))))))))))))))))))))))))) (and .def_526 (and .def_81 (and .def_75 (and .def_234 (and .def_195 (and .def_202 (and .loc.13 (and .loc.11 (and .def_79 (and .def_176 (and .loc.8 (and .def_1298 (and .def_248 (and .def_174 (and .def_171 (and .def_168 (and .def_165 (and .def_1004 (and .def_1138 (and .def_162 (and .def_618 (and .def_288 (and .def_159 (and .def_743 (and .def_156 (and .def_456 (and .def_453 (and .def_290 (and .def_153 (and .def_875 (and .def_877 (and .def_150 (and .def_1006 (and .def_147 (and .def_620 (and .def_745 (and .def_448 (and .def_144 (and .def_141 (and .def_138 (and .def_135 (and .def_132 (and .def_1227 .def_1300)))))))))))))))))))))))))))))))))))))))))))) (and .def_526 (and .def_444 (and .def_81 (and .def_75 (and .def_234 (and .def_195 (and .def_202 (and .loc.13 (and .loc.11 (and .def_79 (and .def_176 (and .loc.8 (and .def_1298 (and .def_248 (and .def_174 (and .def_171 (and .def_168 (and .def_165 (and .def_1004 (and .def_1138 (and .def_162 (and .def_618 (and .def_288 (and .def_159 (and .def_743 (and .def_156 (and .def_456 .def_1371)))))))))))))))))))))))))))) (and .def_1472 .def_1474)) (and (or H2_31 (and .def_467 (= .x.3070 (store D_53 D1_53 (store .def_1304 (+ N_53 .def_459) (select .def_257 (+ .def_459 W1_53))))))) (and .def_526 (and .def_479 (and .def_81 (and .def_75 (and .def_234 (and .def_195 (and .def_202 (and .def_251 (and .loc.13 (and .def_79 (and .def_176 (and .loc.8 (and .def_1298 (and .def_248 (and .def_174 (and .def_171 (and .def_168 (and .def_165 (and .def_1004 (and .def_1138 (and .def_162 (and .def_618 (and .def_288 (and .def_159 (and .def_743 (and .def_156 (and .def_453 (and .def_290 (and .def_153 (and .def_875 (and .def_877 (and .def_150 (and .def_1006 (and .def_147 (and .def_620 (and .def_745 (and .def_448 (and .def_144 (and .def_141 (and .def_138 (and .def_135 (and .def_132 (and .def_1300 .def_1311))))))))))))))))))))))))))))))))))))))))))))) (and .def_591 (and .def_526 (and .def_77 (and .def_81 (and .def_234 (and .def_195 (and .def_202 (and .def_251 (and .loc.13 (and .def_79 (and .loc.7 (and .loc.6 (and .def_1472 (and .def_1298 (and .def_248 (and .def_174 (and .def_171 (and .def_168 (and .def_165 (and .def_1004 (and .def_1138 (and .def_162 (and .def_618 (and .def_288 (and .def_159 (and .def_743 (and .def_156 .def_1548)))))))))))))))))))))))))))) (and .def_526 (and .def_77 (and .def_81 (and .def_234 (and .def_195 (and .def_205 (and .loc.12 (and .loc.11 (and .def_79 (and .def_176 (and .loc.7 (and .def_1472 (and .def_1298 (and .def_248 (and .def_174 (and .def_171 (and .def_168 (and .def_165 (and .def_1004 (and .def_1138 (and .def_162 (and .def_618 (and .def_288 (and .def_159 (and .def_743 (and .def_156 (and .def_456 (and .def_453 (and .def_290 (and .def_153 (and .def_875 (and .def_877 (and .def_150 (and .def_1006 (and .def_147 (and .def_620 (and .def_745 (and .def_448 (and .def_144 (and .def_141 (and .def_138 (and .def_135 (and .def_132 (and .def_1300 (and .def_1140 (and .def_538 .def_1474))))))))))))))))))))))))))))))))))))))))))))))) (and (or H2_31 .def_1624) (and .def_526 (and .def_77 (and .def_81 (and .def_234 (and .def_195 (and .def_205 (and .loc.12 (and .loc.11 (and .def_79 (and .def_176 (and .loc.7 (and .def_1472 (and .def_1298 (and .def_248 (and .def_174 (and .def_171 (and .def_168 (and .def_165 (and .def_1004 (and .def_1138 (and .def_162 (and .def_618 (and .def_288 (and .def_159 (and .def_743 (and .def_156 (and .def_456 .def_1548))))))))))))))))))))))))))))) (and (= X_53 .x.3090) (and (= S_53 .x.3085) (and (= L_53 .x.3078) (= P_53 .x.3082))))) (and (or H2_31 (and (= .x.3070 (store .def_1672 A2_53 (store (select .def_1672 A2_53) (+ (* 4 P_53) B1_53) S_53))) (and (<= (- 2147483648) S_53) (and (<= (- 2147483648) L_53) (and (not .def_1624) (and (<= L_53 2147483647) (<= S_53 2147483647))))))) (and (or G2_53 (= (+ P_53 (* (- 1) .x.3082)) (- 1))) (and .def_526 (and .def_77 (and .def_81 (and .def_234 (and .def_195 (and .def_205 (and .def_251 (and .loc.12 (and .def_79 (and .def_176 (and .loc.7 (and .def_1472 (and .def_1298 (and .def_248 (and .def_174 (and .def_171 (and .def_168 (and .def_165 (and .def_1004 (and .def_1138 (and .def_162 (and .def_618 (and .def_288 (and .def_159 (and .def_743 (and .def_156 (and .def_456 (and .def_453 (and .def_290 (and .def_153 (and .def_875 (and .def_877 (and .def_150 (and .def_1006 (and .def_147 (and .def_620 (and .def_745 (and .def_448 (and .def_144 (and .def_141 (and .def_138 (and .def_135 (and .def_132 (and .def_1300 (and .def_1140 (and .def_339 .def_1474))))))))))))))))))))))))))))))))))))))))))))))))) (and (= J_53 .x.3076) (and (= F_53 .x.3072) (= H_53 .x.3074)))) (and (or H2_31 (and (and (= .x.3076 0) (= .x.3072 0)) (= H2_0 (store B_53 0 0)))) (and (or G2_53 (and (and (and (and (and (and (and (and (and (and (and (and (and (and (and (and (and (and (and (and (and (and (and (and (and (and (and (and (and (and (and (and (and (and (and (and (and (and (not (<= .x.3067 .x.3088)) (not (<= .x.3067 .x.3081))) (not (<= .x.3067 .x.3093))) (not (<= .x.3067 .x.3096))) (not (<= .x.3067 .x.3097))) (not (<= .x.3067 .x.3101))) (not (<= .x.3067 .x.3110))) (not (<= .x.3067 .x.3119))) (not (<= .x.3067 .x.3112))) (= .x.3080 0)) (= .x.3082 0)) (= .x.3087 0)) (not (= .x.3088 0))) (not (= .x.3093 0))) (= .x.3094 0)) (= .x.3095 0)) (not (= .x.3097 0))) (not (= .x.3101 0))) (= .x.3103 0)) (= .x.3106 0)) (not (= .x.3110 0))) (= .x.3118 0)) (not (= .x.3119 0))) (= .x.3115 0)) (not (= .x.3081 0))) (= .x.3083 0)) (not (= .x.3096 0))) (not (= .x.3112 0))) (= (select .def_1835 .x.3081) 0)) (= (select .def_1839 .x.3097) 0)) (= (select .def_1844 .x.3088) 0)) (= (select .def_1848 .x.3101) 0)) (= (select .def_1852 .x.3119) 0)) (= (select H2_0 .x.3112) 0)) (= (select .def_1834 .x.3096) 0)) (= (select .def_1843 .x.3110) 0)) (= (select .def_1865 .x.3093) 0)) (= .x.3068 (store .def_1865 .x.3093 1))) (= .x.3074 (store (store (store (store (store (store (store (store (store H_53 .x.3112 400000) .x.3096 400000) .x.3081 400000) .x.3097 400000) .x.3110 400000) .x.3088 400000) .x.3101 400000) .x.3119 400000) .x.3093 400000)))) (and .def_526 (and .def_77 (and .def_81 (and .def_75 (and .def_234 (and .def_195 (and .def_205 (and .def_251 (and .loc.12 (and .def_79 (and .loc.6 (and .def_248 (and .def_174 (and .def_242 .def_450)))))))))))))))))))))))))))))))))))))))))))))))))))))))))))))))))))))))))))))))))))))))))))))))))))))))))))))))))))))))))))))))))))))) (state |.x.3067| |.x.3068| |.x.3069| |.x.3070| |.x.3071| |.x.3072| |.x.3073| |.x.3074| |.x.3075| |.x.3076| |.x.3077| |.x.3078| |.x.3079| |.x.3080| |.x.3081| |.x.3082| |.x.3083| |.x.3084| |.x.3085| |.x.3086| |.x.3087| |.x.3088| |.x.3089| |.x.3090| |.x.3091| |.x.3092| |.x.3093| |.x.3094| |.x.3095| |.x.3096| |.x.3097| |.x.3098| |.x.3099| |.x.3100| |.x.3101| |.x.3102| |.x.3103| |.x.3104| |.x.3105| |.x.3106| |.x.3107| |.x.3108| |.x.3109| |.x.3110| |.x.3111| |.x.3112| |.x.3113| |.x.3114| |.x.3115| |.x.3116| |.x.3117| |.x.3118| |.x.3119| |.x.3120| |.x.3121| |.x.3122| |.x.3123| |.x.3124| |G2_53| |.loc.11| |.loc.12| |.loc.13| |.loc.14| |.loc.15| |.xtv.1|))))
(assert (forall ((|A_53| Int) (|B_53| (Array Int Int)) (|C_53| (Array Int Int)) (|D_53| (Array Int Int)) (|E_53| (Array Int Int)) (|F_53| Int) (|G_53| Int) (|H_53| (Array Int Int)) (|I_53| (Array Int Int)) (|J_53| Int) (|K_53| Int) (|L_53| Int) (|M_53| Int) (|N_53| Int) (|O_53| Int) (|P_53| Int) (|Q_53| Int) (|R_53| Int) (|S_53| Int) (|T_53| Int) (|U_53| Int) (|V_53| Int) (|W_53| Int) (|X_53| Int) (|Y_53| Int) (|Z_53| Int) (|A1_53| Int) (|B1_53| Int) (|C1_53| Int) (|D1_53| Int) (|E1_53| Int) (|F1_53| Int) (|G1_53| Int) (|H1_53| Int) (|I1_53| Int) (|J1_53| Int) (|K1_53| Int) (|L1_53| Int) (|M1_53| Int) (|N1_53| Int) (|O1_53| Int) (|P1_53| Int) (|Q1_53| Int) (|R1_53| Int) (|S1_53| Int) (|T1_53| Int) (|U1_53| Int) (|V1_53| Int) (|W1_53| Int) (|X1_53| Int) (|Y1_53| Int) (|Z1_53| Int) (|A2_53| Int) (|B2_53| Int) (|C2_53| Int) (|D2_53| Int) (|E2_53| Int) (|F2_53| Int) (|H2_31| Bool) (|.loc.6| Bool) (|.loc.7| Bool) (|.loc.8| Bool) (|.loc.9| Bool) (|.loc.10| Bool) (|H2_0| (Array Int Int)) (|.x.3077| Int) (|.x.3075| (Array Int Int)) (|.x.3073| Int) (|.x.3071| (Array Int Int)) (|.x.3067| Int) (|.x.3069| (Array Int Int)) (|.x.3068| (Array Int Int)) (|G2_53| Bool) (|.x.3080| Int) (|.x.3081| Int) (|.x.3083| Int) (|.x.3087| Int) (|.x.3088| Int) (|.x.3093| Int) (|.x.3094| Int) (|.x.3095| Int) (|.x.3096| Int) (|.x.3097| Int) (|.x.3101| Int) (|.x.3103| Int) (|.x.3106| Int) (|.x.3110| Int) (|.x.3112| Int) (|.x.3115| Int) (|.x.3118| Int) (|.x.3119| Int) (|.x.3120| Int) (|.x.3121| Int) (|.loc.14| Bool) (|.loc.12| Bool) (|.loc.13| Bool) (|.x.3079| Int) (|.x.3084| Int) (|.x.3086| Int) (|.x.3122| Int) (|.loc.11| Bool) (|.x.3113| Int) (|.x.3107| Int) (|.x.3098| Int) (|.x.3070| (Array Int Int)) (|.x.3108| Int) (|.x.3109| Int) (|.loc.15| Bool) (|.x.3114| Int) (|.x.3100| Int) (|.x.3111| Int) (|.x.3099| Int) (|.x.3105| Int) (|.x.3104| Int) (|.x.3117| Int) (|.x.3102| Int) (|.x.3116| Int) (|.x.3091| Int) (|.x.3123| Int) (|.x.3092| Int) (|.x.3124| Int) (|.x.3089| Int) (|.x.3090| Int) (|.x.3085| Int) (|.x.3078| Int) (|.x.3082| Int) (|.x.3076| Int) (|.x.3072| Int) (|.x.3074| (Array Int Int)) (|.xtv.1| (Array Int Int))) (=> (state |A_53| |B_53| |C_53| |D_53| |E_53| |F_53| |G_53| |H_53| |I_53| |J_53| |K_53| |L_53| |M_53| |N_53| |O_53| |P_53| |Q_53| |R_53| |S_53| |T_53| |U_53| |V_53| |W_53| |X_53| |Y_53| |Z_53| |A1_53| |B1_53| |C1_53| |D1_53| |E1_53| |F1_53| |G1_53| |H1_53| |I1_53| |J1_53| |K1_53| |L1_53| |M1_53| |N1_53| |O1_53| |P1_53| |Q1_53| |R1_53| |S1_53| |T1_53| |U1_53| |V1_53| |W1_53| |X1_53| |Y1_53| |Z1_53| |A2_53| |B2_53| |C2_53| |D2_53| |E2_53| |F2_53| |H2_31| |.loc.6| |.loc.7| |.loc.8| |.loc.9| |.loc.10| |H2_0|) (not (and H2_31 (and .loc.10 (and .loc.9 (and (not .loc.8) (and (not .loc.7) (not .loc.6))))))))))
(check-sat)
